GeneratedTests/Random_6/Random_6_10.tsp
NAME: Random_6_10
TYPE: TSP
DIMENSION: 6
EDGE_WEIGHT_TYPE: EUC_2D
NODE_COORD_SECTION
1 14.513276 5.298969
2 5.3790145 13.673865
3 15.331341 2.0591006
4 6.5494704 6.9163795
5 12.445096 5.2626667
6 3.369053 12.092963
EOF
