GeneratedTests/Random_6/Random_6_10.txt
NAME: Random_6_10
TYPE: TSP
DIMENSION: 6
EDGE_WEIGHT_TYPE: EUC_2D
NODE_COORD_SECTION
1 14.750121 7.702694
2 2.7035122 5.504958
3 3.648197 0.5503013
4 13.902935 8.304941
5 11.438631 16.142437
6 0.4469676 2.272377
EOF
